c cksystemsgroup.github.io/unicorn
c CNF contains a total of 444 clauses.
c CNF contains a total of 191 variables.
c CNF clauses cover 1 bad states.
c Variable name mapping (65 names):
c   1: input[bit=63]
c   3: input[bit=62]
c   5: input[bit=61]
c   7: input[bit=60]
c   9: input[bit=59]
c   11: input[bit=58]
c   13: input[bit=57]
c   15: input[bit=56]
c   17: input[bit=55]
c   19: input[bit=54]
c   21: input[bit=53]
c   23: input[bit=52]
c   25: input[bit=51]
c   27: input[bit=50]
c   29: input[bit=49]
c   31: input[bit=48]
c   33: input[bit=47]
c   35: input[bit=46]
c   37: input[bit=45]
c   39: input[bit=44]
c   41: input[bit=43]
c   43: input[bit=42]
c   45: input[bit=41]
c   47: input[bit=40]
c   49: input[bit=39]
c   51: input[bit=38]
c   53: input[bit=37]
c   55: input[bit=36]
c   57: input[bit=35]
c   59: input[bit=34]
c   61: input[bit=33]
c   63: input[bit=32]
c   65: input[bit=31]
c   67: input[bit=30]
c   69: input[bit=29]
c   71: input[bit=28]
c   73: input[bit=27]
c   75: input[bit=26]
c   77: input[bit=25]
c   79: input[bit=24]
c   81: input[bit=23]
c   83: input[bit=22]
c   85: input[bit=21]
c   87: input[bit=20]
c   89: input[bit=19]
c   91: input[bit=18]
c   93: input[bit=17]
c   95: input[bit=16]
c   97: input[bit=15]
c   99: input[bit=14]
c   101: input[bit=13]
c   103: input[bit=12]
c   105: input[bit=11]
c   107: input[bit=10]
c   109: input[bit=9]
c   111: input[bit=8]
c   113: input[bit=7]
c   115: input[bit=6]
c   117: input[bit=5]
c   119: input[bit=4]
c   121: input[bit=3]
c   123: input[bit=2]
c   125: input[bit=1]
c   127: input[bit=0]
c   191: ?
p cnf 191 444
-2 0
4 0
-6 0
-8 0
-10 0
-12 0
-14 0
-16 0
-18 0
-20 0
-22 0
-24 0
-26 0
-28 0
-30 0
-32 0
-34 0
-36 0
-38 0
-40 0
-42 0
-44 0
-46 0
-48 0
-50 0
-52 0
-54 0
-56 0
-58 0
-60 0
-62 0
-64 0
-66 0
-68 0
-70 0
-72 0
-74 0
-76 0
-78 0
-80 0
-82 0
-84 0
-86 0
-88 0
-90 0
-92 0
-94 0
-96 0
-98 0
-100 0
-102 0
-104 0
-106 0
-108 0
-110 0
-112 0
-114 0
-116 0
-118 0
-120 0
-122 0
-124 0
-126 0
125 126 -128 0
125 127 -128 0
-126 -127 128 0
126 127 -128 0
-125 -127 128 0
-125 -126 128 0
123 124 -129 0
123 128 -129 0
-124 -128 129 0
124 128 -129 0
-123 -128 129 0
-123 -124 129 0
121 122 -130 0
121 129 -130 0
-122 -129 130 0
122 129 -130 0
-121 -129 130 0
-121 -122 130 0
119 120 -131 0
119 130 -131 0
-120 -130 131 0
120 130 -131 0
-119 -130 131 0
-119 -120 131 0
117 118 -132 0
117 131 -132 0
-118 -131 132 0
118 131 -132 0
-117 -131 132 0
-117 -118 132 0
115 116 -133 0
115 132 -133 0
-116 -132 133 0
116 132 -133 0
-115 -132 133 0
-115 -116 133 0
113 114 -134 0
113 133 -134 0
-114 -133 134 0
114 133 -134 0
-113 -133 134 0
-113 -114 134 0
111 112 -135 0
111 134 -135 0
-112 -134 135 0
112 134 -135 0
-111 -134 135 0
-111 -112 135 0
109 110 -136 0
109 135 -136 0
-110 -135 136 0
110 135 -136 0
-109 -135 136 0
-109 -110 136 0
107 108 -137 0
107 136 -137 0
-108 -136 137 0
108 136 -137 0
-107 -136 137 0
-107 -108 137 0
105 106 -138 0
105 137 -138 0
-106 -137 138 0
106 137 -138 0
-105 -137 138 0
-105 -106 138 0
103 104 -139 0
103 138 -139 0
-104 -138 139 0
104 138 -139 0
-103 -138 139 0
-103 -104 139 0
101 102 -140 0
101 139 -140 0
-102 -139 140 0
102 139 -140 0
-101 -139 140 0
-101 -102 140 0
99 100 -141 0
99 140 -141 0
-100 -140 141 0
100 140 -141 0
-99 -140 141 0
-99 -100 141 0
97 98 -142 0
97 141 -142 0
-98 -141 142 0
98 141 -142 0
-97 -141 142 0
-97 -98 142 0
95 96 -143 0
95 142 -143 0
-96 -142 143 0
96 142 -143 0
-95 -142 143 0
-95 -96 143 0
93 94 -144 0
93 143 -144 0
-94 -143 144 0
94 143 -144 0
-93 -143 144 0
-93 -94 144 0
91 92 -145 0
91 144 -145 0
-92 -144 145 0
92 144 -145 0
-91 -144 145 0
-91 -92 145 0
89 90 -146 0
89 145 -146 0
-90 -145 146 0
90 145 -146 0
-89 -145 146 0
-89 -90 146 0
87 88 -147 0
87 146 -147 0
-88 -146 147 0
88 146 -147 0
-87 -146 147 0
-87 -88 147 0
85 86 -148 0
85 147 -148 0
-86 -147 148 0
86 147 -148 0
-85 -147 148 0
-85 -86 148 0
83 84 -149 0
83 148 -149 0
-84 -148 149 0
84 148 -149 0
-83 -148 149 0
-83 -84 149 0
81 82 -150 0
81 149 -150 0
-82 -149 150 0
82 149 -150 0
-81 -149 150 0
-81 -82 150 0
79 80 -151 0
79 150 -151 0
-80 -150 151 0
80 150 -151 0
-79 -150 151 0
-79 -80 151 0
77 78 -152 0
77 151 -152 0
-78 -151 152 0
78 151 -152 0
-77 -151 152 0
-77 -78 152 0
75 76 -153 0
75 152 -153 0
-76 -152 153 0
76 152 -153 0
-75 -152 153 0
-75 -76 153 0
73 74 -154 0
73 153 -154 0
-74 -153 154 0
74 153 -154 0
-73 -153 154 0
-73 -74 154 0
71 72 -155 0
71 154 -155 0
-72 -154 155 0
72 154 -155 0
-71 -154 155 0
-71 -72 155 0
69 70 -156 0
69 155 -156 0
-70 -155 156 0
70 155 -156 0
-69 -155 156 0
-69 -70 156 0
67 68 -157 0
67 156 -157 0
-68 -156 157 0
68 156 -157 0
-67 -156 157 0
-67 -68 157 0
65 66 -158 0
65 157 -158 0
-66 -157 158 0
66 157 -158 0
-65 -157 158 0
-65 -66 158 0
63 64 -159 0
63 158 -159 0
-64 -158 159 0
64 158 -159 0
-63 -158 159 0
-63 -64 159 0
61 62 -160 0
61 159 -160 0
-62 -159 160 0
62 159 -160 0
-61 -159 160 0
-61 -62 160 0
59 60 -161 0
59 160 -161 0
-60 -160 161 0
60 160 -161 0
-59 -160 161 0
-59 -60 161 0
57 58 -162 0
57 161 -162 0
-58 -161 162 0
58 161 -162 0
-57 -161 162 0
-57 -58 162 0
55 56 -163 0
55 162 -163 0
-56 -162 163 0
56 162 -163 0
-55 -162 163 0
-55 -56 163 0
53 54 -164 0
53 163 -164 0
-54 -163 164 0
54 163 -164 0
-53 -163 164 0
-53 -54 164 0
51 52 -165 0
51 164 -165 0
-52 -164 165 0
52 164 -165 0
-51 -164 165 0
-51 -52 165 0
49 50 -166 0
49 165 -166 0
-50 -165 166 0
50 165 -166 0
-49 -165 166 0
-49 -50 166 0
47 48 -167 0
47 166 -167 0
-48 -166 167 0
48 166 -167 0
-47 -166 167 0
-47 -48 167 0
45 46 -168 0
45 167 -168 0
-46 -167 168 0
46 167 -168 0
-45 -167 168 0
-45 -46 168 0
43 44 -169 0
43 168 -169 0
-44 -168 169 0
44 168 -169 0
-43 -168 169 0
-43 -44 169 0
41 42 -170 0
41 169 -170 0
-42 -169 170 0
42 169 -170 0
-41 -169 170 0
-41 -42 170 0
39 40 -171 0
39 170 -171 0
-40 -170 171 0
40 170 -171 0
-39 -170 171 0
-39 -40 171 0
37 38 -172 0
37 171 -172 0
-38 -171 172 0
38 171 -172 0
-37 -171 172 0
-37 -38 172 0
35 36 -173 0
35 172 -173 0
-36 -172 173 0
36 172 -173 0
-35 -172 173 0
-35 -36 173 0
33 34 -174 0
33 173 -174 0
-34 -173 174 0
34 173 -174 0
-33 -173 174 0
-33 -34 174 0
31 32 -175 0
31 174 -175 0
-32 -174 175 0
32 174 -175 0
-31 -174 175 0
-31 -32 175 0
29 30 -176 0
29 175 -176 0
-30 -175 176 0
30 175 -176 0
-29 -175 176 0
-29 -30 176 0
27 28 -177 0
27 176 -177 0
-28 -176 177 0
28 176 -177 0
-27 -176 177 0
-27 -28 177 0
25 26 -178 0
25 177 -178 0
-26 -177 178 0
26 177 -178 0
-25 -177 178 0
-25 -26 178 0
23 24 -179 0
23 178 -179 0
-24 -178 179 0
24 178 -179 0
-23 -178 179 0
-23 -24 179 0
21 22 -180 0
21 179 -180 0
-22 -179 180 0
22 179 -180 0
-21 -179 180 0
-21 -22 180 0
19 20 -181 0
19 180 -181 0
-20 -180 181 0
20 180 -181 0
-19 -180 181 0
-19 -20 181 0
17 18 -182 0
17 181 -182 0
-18 -181 182 0
18 181 -182 0
-17 -181 182 0
-17 -18 182 0
15 16 -183 0
15 182 -183 0
-16 -182 183 0
16 182 -183 0
-15 -182 183 0
-15 -16 183 0
13 14 -184 0
13 183 -184 0
-14 -183 184 0
14 183 -184 0
-13 -183 184 0
-13 -14 184 0
11 12 -185 0
11 184 -185 0
-12 -184 185 0
12 184 -185 0
-11 -184 185 0
-11 -12 185 0
9 10 -186 0
9 185 -186 0
-10 -185 186 0
10 185 -186 0
-9 -185 186 0
-9 -10 186 0
7 8 -187 0
7 186 -187 0
-8 -186 187 0
8 186 -187 0
-7 -186 187 0
-7 -8 187 0
5 6 -188 0
5 187 -188 0
-6 -187 188 0
6 187 -188 0
-5 -187 188 0
-5 -6 188 0
3 4 -189 0
3 188 -189 0
-4 -188 189 0
4 188 -189 0
-3 -188 189 0
-3 -4 189 0
1 2 -190 0
1 189 -190 0
-2 -189 190 0
2 189 -190 0
-1 -189 190 0
-1 -2 190 0
-190 -191 0
190 191 0
191 0
